p cnf 69 219
4 -2 0
4 3 0
2 -3 -4 0
4 5 -6 0
-4 -5 -6 0
4 -5 6 0
-4 5 6 0
-7 1 0
-7 -6 0
-1 6 7 0
9 10 -11 0
-9 -10 -11 0
9 -10 11 0
-9 10 11 0
12 -8 0
12 11 0
8 -11 -12 0
-14 13 0
-14 -6 0
-13 6 14 0
16 -14 0
16 15 0
14 -15 -16 0
-17 -12 0
-17 16 0
12 -16 17 0
6 17 -18 0
-6 -17 -18 0
6 -17 18 0
-6 17 18 0
-2 -11 -19 0
2 11 -19 0
-2 11 19 0
2 -11 19 0
-20 -18 0
-20 19 0
18 -19 20 0
21 7 0
21 -20 0
-7 20 -21 0
-22 -2 0
-22 8 0
2 -8 22 0
-22 23 -24 0
22 -23 -24 0
-22 -23 24 0
22 23 24 0
25 12 0
25 -24 0
-12 24 -25 0
-25 26 -27 0
25 -26 -27 0
-25 -26 27 0
25 26 27 0
-28 3 0
-28 -10 0
-3 10 28 0
-29 4 0
-29 -4 0
30 -28 0
30 -29 0
28 29 -30 0
-31 -27 0
-31 30 0
27 -30 31 0
32 -21 0
32 31 0
21 -31 -32 0
-26 4 -33 0
26 -4 -33 0
-26 -4 33 0
26 4 33 0
33 -28 -34 0
-33 28 -34 0
33 28 34 0
-33 -28 34 0
-35 32 0
-35 -34 0
-32 34 35 0
36 10 -37 0
-36 -10 -37 0
36 -10 37 0
-36 10 37 0
38 -37 0
38 2 0
37 -2 -38 0
38 17 -39 0
-38 -17 -39 0
38 -17 39 0
-38 17 39 0
41 40 0
41 8 0
-40 -8 -41 0
42 37 0
42 -41 0
-37 41 -42 0
43 -39 0
43 42 0
39 -42 -43 0
44 -35 0
44 43 0
35 -43 -44 0
45 37 0
45 -9 0
-37 9 -45 0
-47 -46 0
-47 10 0
46 -10 47 0
-48 45 0
-48 47 0
-45 -47 48 0
41 22 -49 0
-41 -22 -49 0
41 -22 49 0
-41 22 49 0
50 48 0
50 49 0
-48 -49 -50 0
-51 -11 0
-51 -9 0
11 9 51 0
-51 -36 -52 0
51 36 -52 0
-51 36 52 0
51 -36 52 0
24 52 -53 0
-24 -52 -53 0
24 -52 53 0
-24 52 53 0
-54 -17 0
-54 23 0
17 -23 54 0
-55 -8 0
-55 -9 0
8 9 55 0
-56 3 0
-56 10 0
-3 -10 56 0
-2 -3 -57 0
2 3 -57 0
-2 3 57 0
2 -3 57 0
-58 -56 0
-58 57 0
56 -57 58 0
-59 55 0
-59 -58 0
-55 58 59 0
-60 -54 0
-60 -59 0
54 59 60 0
10 -23 -61 0
-10 23 -61 0
10 23 61 0
-10 -23 61 0
41 -16 -62 0
-41 16 -62 0
41 16 62 0
-41 -16 62 0
63 -61 0
63 -62 0
61 62 -63 0
64 -60 0
64 63 0
60 -63 -64 0
-65 53 0
-65 64 0
-53 -64 65 0
13 6 -66 0
-13 -6 -66 0
13 -6 66 0
-13 6 66 0
-67 65 0
-67 -66 0
-65 66 67 0
50 67 -68 0
-50 -67 -68 0
50 -67 68 0
-50 67 68 0
69 44 0
69 68 0
-44 -68 -69 0
34 -38 -53 -67 0
49 64 -57 -67 -6 -66 0
-14 -67 -49 0
-38 60 0
36 -38 0
46 -64 -52 -50 -19 0
-60 -49 24 6 0
-17 -68 0
53 35 13 0
-55 14 69 -2 0
1 37 0
-67 -17 3 57 7 0
-66 -54 0
-26 3 -44 62 0
12 -24 -63 21 -26 20 0
13 -68 27 0
-40 5 0
-69 -33 -7 49 0
-58 -41 69 -40 34 -17 0
69 -64 -45 48 -43 0
-4 22 29 67 27 52 0
-64 24 -12 -23 0
57 -36 0
28 22 52 -60 38 58 0
41 -51 68 54 15 -63 0
52 17 26 43 -8 0
3 22 0
36 -56 17 0
52 24 9 -51 49 37 0
-53 -36 0
-58 26 -49 0
-35 16 -57 3 -5 9 0
53 50 0
-9 47 0
-49 -46 59 -11 -28 -5 0
15 31 45 -2 0
69 0
